NAME: tsp_89
COMMENT: Random TSP instance
TYPE: TSP
DIMENSION: 50
EDGE_WEIGHT_TYPE: EUC_2D
NODE_COORD_SECTION
1 96 54
2 563 368
3 122 673
4 241 704
5 25 475
6 849 542
7 525 804
8 855 540
9 742 482
10 719 223
11 287 232
12 302 749
13 847 976
14 846 112
15 646 344
16 449 331
17 491 550
18 483 503
19 946 57
20 214 802
21 92 852
22 6 960
23 341 295
24 30 127
25 73 272
26 471 668
27 863 730
28 876 881
29 624 841
30 905 16
31 325 204
32 176 33
33 598 632
34 663 176
35 826 201
36 719 433
37 638 856
38 101 282
39 937 232
40 314 971
41 909 153
42 805 290
43 959 161
44 592 415
45 907 538
46 636 113
47 178 869
48 529 255
49 258 734
50 967 592
